(set-info :smt-lib-version 2.6)
(set-logic QF_LRA)
(set-info :source |
Fully parameterized specification and verification of a synchronizer   
circuit modeling metastability at various levels of refinement.     
A paper describing this specification, to be published in Designing     
Correct Circuits (DCC), 2006, is available from the authors.            

Geoffrey Brown, Indiana University <geobrown@cs.indiana.edu>
Lee Pike, Galois Connections, Inc. <leepike@galois.com>

Translated into CVC format by Leonardo de Moura.

This benchmark was automatically translated into SMT-LIB format from
CVC format using CVC Lite

|)
(set-info :category "industrial")
(set-info :status sat)
(declare-fun x_0 () Bool)
(declare-fun x_1 () Bool)
(declare-fun x_2 () Real)
(declare-fun x_3 () Real)
(declare-fun x_4 () Bool)
(declare-fun x_5 () Bool)
(declare-fun x_6 () Real)
(declare-fun x_7 () Real)
(declare-fun x_8 () Bool)
(declare-fun x_9 () Bool)
(declare-fun x_10 () Real)
(declare-fun x_11 () Real)
(declare-fun x_12 () Bool)
(declare-fun x_13 () Bool)
(declare-fun x_14 () Real)
(declare-fun x_15 () Real)
(declare-fun x_16 () Bool)
(declare-fun x_17 () Bool)
(declare-fun x_18 () Real)
(declare-fun x_19 () Real)
(declare-fun x_20 () Bool)
(declare-fun x_21 () Bool)
(declare-fun x_22 () Real)
(declare-fun x_23 () Real)
(declare-fun x_24 () Bool)
(declare-fun x_25 () Bool)
(declare-fun x_26 () Real)
(declare-fun x_27 () Real)
(declare-fun x_28 () Bool)
(declare-fun x_29 () Bool)
(declare-fun x_30 () Real)
(declare-fun x_31 () Real)
(declare-fun x_32 () Bool)
(declare-fun x_33 () Bool)
(declare-fun x_34 () Real)
(declare-fun x_35 () Real)
(declare-fun x_36 () Bool)
(declare-fun x_37 () Bool)
(declare-fun x_38 () Real)
(declare-fun x_39 () Real)
(declare-fun x_40 () Bool)
(declare-fun x_41 () Bool)
(declare-fun x_42 () Real)
(declare-fun x_43 () Real)
(declare-fun x_44 () Real)
(declare-fun x_45 () Real)
(declare-fun x_46 () Real)
(declare-fun x_47 () Real)
(declare-fun x_48 () Real)
(declare-fun x_49 () Real)
(declare-fun x_50 () Real)
(declare-fun x_51 () Real)
(declare-fun x_52 () Real)
(declare-fun x_53 () Real)
(declare-fun x_54 () Bool)
(declare-fun x_55 () Bool)
(declare-fun x_56 () Real)
(declare-fun x_57 () Real)
(declare-fun x_58 () Real)
(declare-fun x_59 () Real)
(declare-fun x_60 () Bool)
(declare-fun x_61 () Bool)
(declare-fun x_62 () Bool)
(declare-fun x_63 () Bool)
(declare-fun x_64 () Bool)
(declare-fun x_65 () Real)
(declare-fun x_66 () Bool)
(declare-fun x_67 () Real)
(declare-fun x_68 () Real)
(declare-fun x_69 () Real)
(declare-fun x_70 () Real)
(declare-fun x_71 () Real)
(declare-fun x_72 () Real)
(declare-fun x_73 () Real)
(declare-fun x_74 () Real)
(declare-fun x_75 () Real)
(declare-fun x_76 () Bool)
(declare-fun x_77 () Real)
(declare-fun x_78 () Bool)
(declare-fun x_79 () Bool)
(declare-fun x_80 () Real)
(declare-fun x_81 () Bool)
(declare-fun x_82 () Real)
(declare-fun x_83 () Real)
(declare-fun x_84 () Real)
(declare-fun x_85 () Real)
(declare-fun x_86 () Real)
(declare-fun x_87 () Real)
(declare-fun x_88 () Real)
(declare-fun x_89 () Real)
(declare-fun x_90 () Bool)
(declare-fun x_91 () Real)
(declare-fun x_92 () Bool)
(declare-fun x_93 () Bool)
(declare-fun x_94 () Real)
(declare-fun x_95 () Bool)
(declare-fun x_96 () Real)
(declare-fun x_97 () Real)
(declare-fun x_98 () Real)
(declare-fun x_99 () Real)
(declare-fun x_100 () Real)
(declare-fun x_101 () Real)
(declare-fun x_102 () Real)
(declare-fun x_103 () Real)
(declare-fun x_104 () Bool)
(declare-fun x_105 () Real)
(declare-fun x_106 () Bool)
(declare-fun x_107 () Bool)
(declare-fun x_108 () Real)
(declare-fun x_109 () Bool)
(declare-fun x_110 () Real)
(declare-fun x_111 () Real)
(declare-fun x_112 () Real)
(declare-fun x_113 () Real)
(declare-fun x_114 () Real)
(declare-fun x_115 () Real)
(declare-fun x_116 () Real)
(declare-fun x_117 () Real)
(declare-fun x_118 () Bool)
(declare-fun x_119 () Real)
(declare-fun x_120 () Bool)
(declare-fun x_121 () Bool)
(declare-fun x_122 () Real)
(declare-fun x_123 () Bool)
(declare-fun x_124 () Real)
(declare-fun x_125 () Real)
(declare-fun x_126 () Real)
(declare-fun x_127 () Real)
(declare-fun x_128 () Real)
(declare-fun x_129 () Real)
(declare-fun x_130 () Real)
(declare-fun x_131 () Real)
(declare-fun x_132 () Bool)
(declare-fun x_133 () Real)
(declare-fun x_134 () Bool)
(declare-fun x_135 () Bool)
(declare-fun x_136 () Real)
(declare-fun x_137 () Bool)
(declare-fun x_138 () Real)
(declare-fun x_139 () Real)
(declare-fun x_140 () Real)
(declare-fun x_141 () Real)
(declare-fun x_142 () Real)
(declare-fun x_143 () Real)
(declare-fun x_144 () Real)
(declare-fun x_145 () Real)
(declare-fun x_146 () Bool)
(declare-fun x_147 () Real)
(declare-fun x_148 () Bool)
(declare-fun x_149 () Bool)
(declare-fun x_150 () Real)
(declare-fun x_151 () Bool)
(declare-fun x_152 () Real)
(declare-fun x_153 () Real)
(declare-fun x_154 () Real)
(declare-fun x_155 () Real)
(declare-fun x_156 () Real)
(declare-fun x_157 () Real)
(declare-fun x_158 () Real)
(declare-fun x_159 () Real)
(declare-fun x_160 () Bool)
(declare-fun x_161 () Real)
(declare-fun x_162 () Bool)
(declare-fun x_163 () Bool)
(declare-fun x_164 () Real)
(declare-fun x_165 () Bool)
(declare-fun x_166 () Real)
(declare-fun x_167 () Real)
(declare-fun x_168 () Real)
(declare-fun x_169 () Real)
(declare-fun x_170 () Real)
(declare-fun x_171 () Real)
(declare-fun x_172 () Real)
(declare-fun x_173 () Real)
(declare-fun x_174 () Bool)
(declare-fun x_175 () Real)
(declare-fun x_176 () Bool)
(declare-fun x_177 () Bool)
(declare-fun x_178 () Real)
(declare-fun x_179 () Bool)
(declare-fun x_180 () Real)
(declare-fun x_181 () Real)
(declare-fun x_182 () Real)
(declare-fun x_183 () Real)
(declare-fun x_184 () Real)
(declare-fun x_185 () Real)
(declare-fun x_186 () Real)
(declare-fun x_187 () Real)
(declare-fun x_188 () Bool)
(declare-fun x_189 () Real)
(declare-fun x_190 () Bool)
(declare-fun x_191 () Bool)
(declare-fun x_192 () Real)
(declare-fun x_193 () Bool)
(declare-fun x_194 () Real)
(declare-fun x_195 () Real)
(declare-fun x_196 () Real)
(declare-fun x_197 () Real)
(declare-fun x_198 () Real)
(declare-fun x_199 () Real)
(declare-fun x_200 () Real)
(declare-fun x_201 () Real)
(declare-fun x_202 () Bool)
(declare-fun x_203 () Real)
(declare-fun x_204 () Real)
(declare-fun x_205 () Bool)
(declare-fun x_206 () Bool)
(declare-fun x_207 () Bool)
(declare-fun x_208 () Bool)
(declare-fun x_209 () Real)
(declare-fun x_210 () Bool)
(declare-fun x_211 () Real)
(declare-fun x_212 () Real)
(declare-fun x_213 () Real)
(declare-fun x_214 () Real)
(assert (let ((?v_136 (= x_44 x_45)) (?v_137 (= x_46 x_47)) (?v_138 (= x_48 x_49)) (?v_134 (= x_50 x_51))) (let ((?v_139 (not ?v_134)) (?v_142 (= x_52 x_53)) (?v_131 (= x_54 x_55)) (?v_132 (= x_7 x_3)) (?v_135 (ite (<= x_46 x_50) x_46 x_50)) (?v_130 (ite (<= x_50 x_46) x_50 x_46)) (?v_123 (= x_71 x_44)) (?v_124 (= x_47 x_72)) (?v_125 (= x_73 x_48)) (?v_121 (= x_51 x_74))) (let ((?v_126 (not ?v_121)) (?v_129 (= x_75 x_52)) (?v_118 (= x_76 x_54)) (?v_119 (= x_11 x_7)) (?v_122 (ite (<= x_47 x_51) x_47 x_51)) (?v_117 (ite (<= x_51 x_47) x_51 x_47)) (?v_110 (= x_85 x_71)) (?v_111 (= x_72 x_86)) (?v_112 (= x_87 x_73)) (?v_108 (= x_74 x_88))) (let ((?v_113 (not ?v_108)) (?v_116 (= x_89 x_75)) (?v_105 (= x_90 x_76)) (?v_106 (= x_15 x_11)) (?v_109 (ite (<= x_72 x_74) x_72 x_74)) (?v_104 (ite (<= x_74 x_72) x_74 x_72)) (?v_97 (= x_99 x_85)) (?v_98 (= x_86 x_100)) (?v_99 (= x_101 x_87)) (?v_95 (= x_88 x_102))) (let ((?v_100 (not ?v_95)) (?v_103 (= x_103 x_89)) (?v_92 (= x_104 x_90)) (?v_93 (= x_19 x_15)) (?v_96 (ite (<= x_86 x_88) x_86 x_88)) (?v_91 (ite (<= x_88 x_86) x_88 x_86)) (?v_84 (= x_113 x_99)) (?v_85 (= x_100 x_114)) (?v_86 (= x_115 x_101)) (?v_82 (= x_102 x_116))) (let ((?v_87 (not ?v_82)) (?v_90 (= x_117 x_103)) (?v_79 (= x_118 x_104)) (?v_80 (= x_23 x_19)) (?v_83 (ite (<= x_100 x_102) x_100 x_102)) (?v_78 (ite (<= x_102 x_100) x_102 x_100)) (?v_71 (= x_127 x_113)) (?v_72 (= x_114 x_128)) (?v_73 (= x_129 x_115)) (?v_69 (= x_116 x_130))) (let ((?v_74 (not ?v_69)) (?v_77 (= x_131 x_117)) (?v_66 (= x_132 x_118)) (?v_67 (= x_27 x_23)) (?v_70 (ite (<= x_114 x_116) x_114 x_116)) (?v_65 (ite (<= x_116 x_114) x_116 x_114)) (?v_58 (= x_141 x_127)) (?v_59 (= x_128 x_142)) (?v_60 (= x_143 x_129)) (?v_56 (= x_130 x_144))) (let ((?v_61 (not ?v_56)) (?v_64 (= x_145 x_131)) (?v_53 (= x_146 x_132)) (?v_54 (= x_31 x_27)) (?v_57 (ite (<= x_128 x_130) x_128 x_130)) (?v_52 (ite (<= x_130 x_128) x_130 x_128)) (?v_45 (= x_155 x_141)) (?v_46 (= x_142 x_156)) (?v_47 (= x_157 x_143)) (?v_43 (= x_144 x_158))) (let ((?v_48 (not ?v_43)) (?v_51 (= x_159 x_145)) (?v_40 (= x_160 x_146)) (?v_41 (= x_35 x_31)) (?v_44 (ite (<= x_142 x_144) x_142 x_144)) (?v_39 (ite (<= x_144 x_142) x_144 x_142)) (?v_32 (= x_169 x_155)) (?v_33 (= x_156 x_170)) (?v_34 (= x_171 x_157)) (?v_30 (= x_158 x_172))) (let ((?v_35 (not ?v_30)) (?v_38 (= x_173 x_159)) (?v_27 (= x_174 x_160)) (?v_28 (= x_39 x_35)) (?v_31 (ite (<= x_156 x_158) x_156 x_158)) (?v_26 (ite (<= x_158 x_156) x_158 x_156)) (?v_19 (= x_183 x_169)) (?v_20 (= x_170 x_184)) (?v_21 (= x_185 x_171)) (?v_17 (= x_172 x_186))) (let ((?v_22 (not ?v_17)) (?v_25 (= x_187 x_173)) (?v_14 (= x_188 x_174)) (?v_15 (= x_43 x_39)) (?v_18 (ite (<= x_170 x_172) x_170 x_172)) (?v_13 (ite (<= x_172 x_170) x_172 x_170)) (?v_6 (= x_197 x_183)) (?v_7 (= x_184 x_198)) (?v_8 (= x_199 x_185)) (?v_4 (= x_186 x_200))) (let ((?v_9 (not ?v_4)) (?v_12 (= x_201 x_187)) (?v_1 (= x_202 x_188)) (?v_2 (= x_203 x_43)) (?v_5 (ite (<= x_184 x_186) x_184 x_186)) (?v_0 (ite (<= x_186 x_184) x_186 x_184)) (?v_3 (= x_206 x_41)) (?v_11 (= x_43 x_203)) (?v_16 (= x_41 x_37)) (?v_24 (= x_39 x_43)) (?v_29 (= x_37 x_33)) (?v_37 (= x_35 x_39)) (?v_42 (= x_33 x_29)) (?v_50 (= x_31 x_35)) (?v_55 (= x_29 x_25)) (?v_63 (= x_27 x_31)) (?v_68 (= x_25 x_21)) (?v_76 (= x_23 x_27)) (?v_81 (= x_21 x_17)) (?v_89 (= x_19 x_23)) (?v_94 (= x_17 x_13)) (?v_102 (= x_15 x_19)) (?v_107 (= x_13 x_9)) (?v_115 (= x_11 x_15)) (?v_120 (= x_9 x_5)) (?v_128 (= x_7 x_11)) (?v_133 (= x_5 x_1)) (?v_141 (= x_3 x_7))) (let ((?v_10 (+ ?v_5 x_58)) (?v_23 (+ ?v_18 x_58)) (?v_36 (+ ?v_31 x_58)) (?v_49 (+ ?v_44 x_58)) (?v_62 (+ ?v_57 x_58)) (?v_75 (+ ?v_70 x_58)) (?v_88 (+ ?v_83 x_58)) (?v_101 (+ ?v_96 x_58)) (?v_114 (+ ?v_109 x_58)) (?v_127 (+ ?v_122 x_58)) (?v_140 (+ ?v_135 x_58))) (and (and (and (and (and (and (and (and (and (and (and (and (and (and (and (and (and (and (and (and (and (and (and (and (and (and (and (and (and (and (and (and (and (and (and (and (and (and (and (and (and (and (and (and (and (and (and (and (and (and (and (and (and (and (and (and (and (and (and (and (and (and (and (and (> x_56 0) (> x_57 0)) (>= x_58 0)) (< x_58 x_56)) (< x_58 x_57)) (>= x_69 0)) (< x_69 x_56)) (< x_69 x_57)) (or (= x_40 x_41) (= x_42 x_43))) (or (= x_36 x_37) (= x_38 x_39))) (or (= x_32 x_33) (= x_34 x_35))) (or (= x_28 x_29) (= x_30 x_31))) (or (= x_24 x_25) (= x_26 x_27))) (or (= x_20 x_21) (= x_22 x_23))) (or (= x_16 x_17) (= x_18 x_19))) (or (= x_12 x_13) (= x_14 x_15))) (or (= x_8 x_9) (= x_10 x_11))) (or (= x_4 x_5) (= x_6 x_7))) (or (= x_0 x_1) (= x_2 x_3))) (or (and (and (and (and (and (and (and (and (and (= x_204 0) (= x_205 x_193)) (= ?v_0 x_186)) (<= (+ ?v_0 x_56) x_200)) (or ?v_3 (= x_206 x_40))) (= x_207 x_190)) (= x_208 x_191)) (= x_198 x_184)) ?v_1) ?v_2) (and (and (and (and (and (and (and (and (and (= x_204 1) (= x_208 x_190)) (= ?v_0 x_184)) (<= (+ ?v_0 x_57) x_198)) (or (and (and (= x_209 0) ?v_1) ?v_2) (and (and (= x_209 1) (= x_188 x_191)) (= x_202 (not x_188))))) (= x_210 x_193)) (= x_205 x_40)) (= x_211 x_42)) (= x_200 x_186)) ?v_3))) (or (or (and (and (and (= x_212 0) ?v_9) (or (not (<= x_183 ?v_5)) (= x_210 x_188))) ?v_6) (and (and (and (= x_212 1) ?v_4) (xor x_188 x_202)) (= x_197 ?v_10))) (and (and (and (= x_212 2) ?v_4) (= x_188 x_202)) ?v_6))) (or (or (and (and (and (= x_213 0) (not ?v_7)) (or (not (<= x_185 ?v_0)) (= x_207 x_41))) ?v_8) (and (and (and (= x_213 1) ?v_7) (xor x_41 x_206)) (= x_199 (+ ?v_0 x_69)))) (and (and (and (= x_213 2) ?v_7) (= x_41 x_206)) ?v_8))) (or (or (and (and (and (= x_214 0) ?v_9) (or (not (<= x_187 ?v_5)) (= x_211 x_43))) ?v_12) (and (and (and (= x_214 1) ?v_4) (not ?v_11)) (= x_201 ?v_10))) (and (and (and (= x_214 2) ?v_4) ?v_11) ?v_12))) (or (and (and (and (and (and (and (and (and (and (= x_189 0) (= x_40 x_179)) (= ?v_13 x_172)) (<= (+ ?v_13 x_56) x_186)) (or ?v_16 (= x_41 x_36))) (= x_190 x_176)) (= x_191 x_177)) (= x_184 x_170)) ?v_14) ?v_15) (and (and (and (and (and (and (and (and (and (= x_189 1) (= x_191 x_176)) (= ?v_13 x_170)) (<= (+ ?v_13 x_57) x_184)) (or (and (and (= x_192 0) ?v_14) ?v_15) (and (and (= x_192 1) (= x_174 x_177)) (= x_188 (not x_174))))) (= x_193 x_179)) (= x_40 x_36)) (= x_42 x_38)) (= x_186 x_172)) ?v_16))) (or (or (and (and (and (= x_194 0) ?v_22) (or (not (<= x_169 ?v_18)) (= x_193 x_174))) ?v_19) (and (and (and (= x_194 1) ?v_17) (xor x_174 x_188)) (= x_183 ?v_23))) (and (and (and (= x_194 2) ?v_17) (= x_174 x_188)) ?v_19))) (or (or (and (and (and (= x_195 0) (not ?v_20)) (or (not (<= x_171 ?v_13)) (= x_190 x_37))) ?v_21) (and (and (and (= x_195 1) ?v_20) (xor x_37 x_41)) (= x_185 (+ ?v_13 x_69)))) (and (and (and (= x_195 2) ?v_20) (= x_37 x_41)) ?v_21))) (or (or (and (and (and (= x_196 0) ?v_22) (or (not (<= x_173 ?v_18)) (= x_42 x_39))) ?v_25) (and (and (and (= x_196 1) ?v_17) (not ?v_24)) (= x_187 ?v_23))) (and (and (and (= x_196 2) ?v_17) ?v_24) ?v_25))) (or (and (and (and (and (and (and (and (and (and (= x_175 0) (= x_36 x_165)) (= ?v_26 x_158)) (<= (+ ?v_26 x_56) x_172)) (or ?v_29 (= x_37 x_32))) (= x_176 x_162)) (= x_177 x_163)) (= x_170 x_156)) ?v_27) ?v_28) (and (and (and (and (and (and (and (and (and (= x_175 1) (= x_177 x_162)) (= ?v_26 x_156)) (<= (+ ?v_26 x_57) x_170)) (or (and (and (= x_178 0) ?v_27) ?v_28) (and (and (= x_178 1) (= x_160 x_163)) (= x_174 (not x_160))))) (= x_179 x_165)) (= x_36 x_32)) (= x_38 x_34)) (= x_172 x_158)) ?v_29))) (or (or (and (and (and (= x_180 0) ?v_35) (or (not (<= x_155 ?v_31)) (= x_179 x_160))) ?v_32) (and (and (and (= x_180 1) ?v_30) (xor x_160 x_174)) (= x_169 ?v_36))) (and (and (and (= x_180 2) ?v_30) (= x_160 x_174)) ?v_32))) (or (or (and (and (and (= x_181 0) (not ?v_33)) (or (not (<= x_157 ?v_26)) (= x_176 x_33))) ?v_34) (and (and (and (= x_181 1) ?v_33) (xor x_33 x_37)) (= x_171 (+ ?v_26 x_69)))) (and (and (and (= x_181 2) ?v_33) (= x_33 x_37)) ?v_34))) (or (or (and (and (and (= x_182 0) ?v_35) (or (not (<= x_159 ?v_31)) (= x_38 x_35))) ?v_38) (and (and (and (= x_182 1) ?v_30) (not ?v_37)) (= x_173 ?v_36))) (and (and (and (= x_182 2) ?v_30) ?v_37) ?v_38))) (or (and (and (and (and (and (and (and (and (and (= x_161 0) (= x_32 x_151)) (= ?v_39 x_144)) (<= (+ ?v_39 x_56) x_158)) (or ?v_42 (= x_33 x_28))) (= x_162 x_148)) (= x_163 x_149)) (= x_156 x_142)) ?v_40) ?v_41) (and (and (and (and (and (and (and (and (and (= x_161 1) (= x_163 x_148)) (= ?v_39 x_142)) (<= (+ ?v_39 x_57) x_156)) (or (and (and (= x_164 0) ?v_40) ?v_41) (and (and (= x_164 1) (= x_146 x_149)) (= x_160 (not x_146))))) (= x_165 x_151)) (= x_32 x_28)) (= x_34 x_30)) (= x_158 x_144)) ?v_42))) (or (or (and (and (and (= x_166 0) ?v_48) (or (not (<= x_141 ?v_44)) (= x_165 x_146))) ?v_45) (and (and (and (= x_166 1) ?v_43) (xor x_146 x_160)) (= x_155 ?v_49))) (and (and (and (= x_166 2) ?v_43) (= x_146 x_160)) ?v_45))) (or (or (and (and (and (= x_167 0) (not ?v_46)) (or (not (<= x_143 ?v_39)) (= x_162 x_29))) ?v_47) (and (and (and (= x_167 1) ?v_46) (xor x_29 x_33)) (= x_157 (+ ?v_39 x_69)))) (and (and (and (= x_167 2) ?v_46) (= x_29 x_33)) ?v_47))) (or (or (and (and (and (= x_168 0) ?v_48) (or (not (<= x_145 ?v_44)) (= x_34 x_31))) ?v_51) (and (and (and (= x_168 1) ?v_43) (not ?v_50)) (= x_159 ?v_49))) (and (and (and (= x_168 2) ?v_43) ?v_50) ?v_51))) (or (and (and (and (and (and (and (and (and (and (= x_147 0) (= x_28 x_137)) (= ?v_52 x_130)) (<= (+ ?v_52 x_56) x_144)) (or ?v_55 (= x_29 x_24))) (= x_148 x_134)) (= x_149 x_135)) (= x_142 x_128)) ?v_53) ?v_54) (and (and (and (and (and (and (and (and (and (= x_147 1) (= x_149 x_134)) (= ?v_52 x_128)) (<= (+ ?v_52 x_57) x_142)) (or (and (and (= x_150 0) ?v_53) ?v_54) (and (and (= x_150 1) (= x_132 x_135)) (= x_146 (not x_132))))) (= x_151 x_137)) (= x_28 x_24)) (= x_30 x_26)) (= x_144 x_130)) ?v_55))) (or (or (and (and (and (= x_152 0) ?v_61) (or (not (<= x_127 ?v_57)) (= x_151 x_132))) ?v_58) (and (and (and (= x_152 1) ?v_56) (xor x_132 x_146)) (= x_141 ?v_62))) (and (and (and (= x_152 2) ?v_56) (= x_132 x_146)) ?v_58))) (or (or (and (and (and (= x_153 0) (not ?v_59)) (or (not (<= x_129 ?v_52)) (= x_148 x_25))) ?v_60) (and (and (and (= x_153 1) ?v_59) (xor x_25 x_29)) (= x_143 (+ ?v_52 x_69)))) (and (and (and (= x_153 2) ?v_59) (= x_25 x_29)) ?v_60))) (or (or (and (and (and (= x_154 0) ?v_61) (or (not (<= x_131 ?v_57)) (= x_30 x_27))) ?v_64) (and (and (and (= x_154 1) ?v_56) (not ?v_63)) (= x_145 ?v_62))) (and (and (and (= x_154 2) ?v_56) ?v_63) ?v_64))) (or (and (and (and (and (and (and (and (and (and (= x_133 0) (= x_24 x_123)) (= ?v_65 x_116)) (<= (+ ?v_65 x_56) x_130)) (or ?v_68 (= x_25 x_20))) (= x_134 x_120)) (= x_135 x_121)) (= x_128 x_114)) ?v_66) ?v_67) (and (and (and (and (and (and (and (and (and (= x_133 1) (= x_135 x_120)) (= ?v_65 x_114)) (<= (+ ?v_65 x_57) x_128)) (or (and (and (= x_136 0) ?v_66) ?v_67) (and (and (= x_136 1) (= x_118 x_121)) (= x_132 (not x_118))))) (= x_137 x_123)) (= x_24 x_20)) (= x_26 x_22)) (= x_130 x_116)) ?v_68))) (or (or (and (and (and (= x_138 0) ?v_74) (or (not (<= x_113 ?v_70)) (= x_137 x_118))) ?v_71) (and (and (and (= x_138 1) ?v_69) (xor x_118 x_132)) (= x_127 ?v_75))) (and (and (and (= x_138 2) ?v_69) (= x_118 x_132)) ?v_71))) (or (or (and (and (and (= x_139 0) (not ?v_72)) (or (not (<= x_115 ?v_65)) (= x_134 x_21))) ?v_73) (and (and (and (= x_139 1) ?v_72) (xor x_21 x_25)) (= x_129 (+ ?v_65 x_69)))) (and (and (and (= x_139 2) ?v_72) (= x_21 x_25)) ?v_73))) (or (or (and (and (and (= x_140 0) ?v_74) (or (not (<= x_117 ?v_70)) (= x_26 x_23))) ?v_77) (and (and (and (= x_140 1) ?v_69) (not ?v_76)) (= x_131 ?v_75))) (and (and (and (= x_140 2) ?v_69) ?v_76) ?v_77))) (or (and (and (and (and (and (and (and (and (and (= x_119 0) (= x_20 x_109)) (= ?v_78 x_102)) (<= (+ ?v_78 x_56) x_116)) (or ?v_81 (= x_21 x_16))) (= x_120 x_106)) (= x_121 x_107)) (= x_114 x_100)) ?v_79) ?v_80) (and (and (and (and (and (and (and (and (and (= x_119 1) (= x_121 x_106)) (= ?v_78 x_100)) (<= (+ ?v_78 x_57) x_114)) (or (and (and (= x_122 0) ?v_79) ?v_80) (and (and (= x_122 1) (= x_104 x_107)) (= x_118 (not x_104))))) (= x_123 x_109)) (= x_20 x_16)) (= x_22 x_18)) (= x_116 x_102)) ?v_81))) (or (or (and (and (and (= x_124 0) ?v_87) (or (not (<= x_99 ?v_83)) (= x_123 x_104))) ?v_84) (and (and (and (= x_124 1) ?v_82) (xor x_104 x_118)) (= x_113 ?v_88))) (and (and (and (= x_124 2) ?v_82) (= x_104 x_118)) ?v_84))) (or (or (and (and (and (= x_125 0) (not ?v_85)) (or (not (<= x_101 ?v_78)) (= x_120 x_17))) ?v_86) (and (and (and (= x_125 1) ?v_85) (xor x_17 x_21)) (= x_115 (+ ?v_78 x_69)))) (and (and (and (= x_125 2) ?v_85) (= x_17 x_21)) ?v_86))) (or (or (and (and (and (= x_126 0) ?v_87) (or (not (<= x_103 ?v_83)) (= x_22 x_19))) ?v_90) (and (and (and (= x_126 1) ?v_82) (not ?v_89)) (= x_117 ?v_88))) (and (and (and (= x_126 2) ?v_82) ?v_89) ?v_90))) (or (and (and (and (and (and (and (and (and (and (= x_105 0) (= x_16 x_95)) (= ?v_91 x_88)) (<= (+ ?v_91 x_56) x_102)) (or ?v_94 (= x_17 x_12))) (= x_106 x_92)) (= x_107 x_93)) (= x_100 x_86)) ?v_92) ?v_93) (and (and (and (and (and (and (and (and (and (= x_105 1) (= x_107 x_92)) (= ?v_91 x_86)) (<= (+ ?v_91 x_57) x_100)) (or (and (and (= x_108 0) ?v_92) ?v_93) (and (and (= x_108 1) (= x_90 x_93)) (= x_104 (not x_90))))) (= x_109 x_95)) (= x_16 x_12)) (= x_18 x_14)) (= x_102 x_88)) ?v_94))) (or (or (and (and (and (= x_110 0) ?v_100) (or (not (<= x_85 ?v_96)) (= x_109 x_90))) ?v_97) (and (and (and (= x_110 1) ?v_95) (xor x_90 x_104)) (= x_99 ?v_101))) (and (and (and (= x_110 2) ?v_95) (= x_90 x_104)) ?v_97))) (or (or (and (and (and (= x_111 0) (not ?v_98)) (or (not (<= x_87 ?v_91)) (= x_106 x_13))) ?v_99) (and (and (and (= x_111 1) ?v_98) (xor x_13 x_17)) (= x_101 (+ ?v_91 x_69)))) (and (and (and (= x_111 2) ?v_98) (= x_13 x_17)) ?v_99))) (or (or (and (and (and (= x_112 0) ?v_100) (or (not (<= x_89 ?v_96)) (= x_18 x_15))) ?v_103) (and (and (and (= x_112 1) ?v_95) (not ?v_102)) (= x_103 ?v_101))) (and (and (and (= x_112 2) ?v_95) ?v_102) ?v_103))) (or (and (and (and (and (and (and (and (and (and (= x_91 0) (= x_12 x_81)) (= ?v_104 x_74)) (<= (+ ?v_104 x_56) x_88)) (or ?v_107 (= x_13 x_8))) (= x_92 x_78)) (= x_93 x_79)) (= x_86 x_72)) ?v_105) ?v_106) (and (and (and (and (and (and (and (and (and (= x_91 1) (= x_93 x_78)) (= ?v_104 x_72)) (<= (+ ?v_104 x_57) x_86)) (or (and (and (= x_94 0) ?v_105) ?v_106) (and (and (= x_94 1) (= x_76 x_79)) (= x_90 (not x_76))))) (= x_95 x_81)) (= x_12 x_8)) (= x_14 x_10)) (= x_88 x_74)) ?v_107))) (or (or (and (and (and (= x_96 0) ?v_113) (or (not (<= x_71 ?v_109)) (= x_95 x_76))) ?v_110) (and (and (and (= x_96 1) ?v_108) (xor x_76 x_90)) (= x_85 ?v_114))) (and (and (and (= x_96 2) ?v_108) (= x_76 x_90)) ?v_110))) (or (or (and (and (and (= x_97 0) (not ?v_111)) (or (not (<= x_73 ?v_104)) (= x_92 x_9))) ?v_112) (and (and (and (= x_97 1) ?v_111) (xor x_9 x_13)) (= x_87 (+ ?v_104 x_69)))) (and (and (and (= x_97 2) ?v_111) (= x_9 x_13)) ?v_112))) (or (or (and (and (and (= x_98 0) ?v_113) (or (not (<= x_75 ?v_109)) (= x_14 x_11))) ?v_116) (and (and (and (= x_98 1) ?v_108) (not ?v_115)) (= x_89 ?v_114))) (and (and (and (= x_98 2) ?v_108) ?v_115) ?v_116))) (or (and (and (and (and (and (and (and (and (and (= x_77 0) (= x_8 x_66)) (= ?v_117 x_51)) (<= (+ ?v_117 x_56) x_74)) (or ?v_120 (= x_9 x_4))) (= x_78 x_61)) (= x_79 x_63)) (= x_72 x_47)) ?v_118) ?v_119) (and (and (and (and (and (and (and (and (and (= x_77 1) (= x_79 x_61)) (= ?v_117 x_47)) (<= (+ ?v_117 x_57) x_72)) (or (and (and (= x_80 0) ?v_118) ?v_119) (and (and (= x_80 1) (= x_54 x_63)) (= x_76 (not x_54))))) (= x_81 x_66)) (= x_8 x_4)) (= x_10 x_6)) (= x_74 x_51)) ?v_120))) (or (or (and (and (and (= x_82 0) ?v_126) (or (not (<= x_44 ?v_122)) (= x_81 x_54))) ?v_123) (and (and (and (= x_82 1) ?v_121) (xor x_54 x_76)) (= x_71 ?v_127))) (and (and (and (= x_82 2) ?v_121) (= x_54 x_76)) ?v_123))) (or (or (and (and (and (= x_83 0) (not ?v_124)) (or (not (<= x_48 ?v_117)) (= x_78 x_5))) ?v_125) (and (and (and (= x_83 1) ?v_124) (xor x_5 x_9)) (= x_73 (+ ?v_117 x_69)))) (and (and (and (= x_83 2) ?v_124) (= x_5 x_9)) ?v_125))) (or (or (and (and (and (= x_84 0) ?v_126) (or (not (<= x_52 ?v_122)) (= x_10 x_7))) ?v_129) (and (and (and (= x_84 1) ?v_121) (not ?v_128)) (= x_75 ?v_127))) (and (and (and (= x_84 2) ?v_121) ?v_128) ?v_129))) (or (and (and (and (and (and (and (and (and (and (= x_59 0) (= x_4 x_60)) (= ?v_130 x_50)) (<= (+ ?v_130 x_56) x_51)) (or ?v_133 (= x_5 x_0))) (= x_61 x_62)) (= x_63 x_64)) (= x_47 x_46)) ?v_131) ?v_132) (and (and (and (and (and (and (and (and (and (= x_59 1) (= x_63 x_62)) (= ?v_130 x_46)) (<= (+ ?v_130 x_57) x_47)) (or (and (and (= x_65 0) ?v_131) ?v_132) (and (and (= x_65 1) (= x_55 x_64)) (= x_54 (not x_55))))) (= x_66 x_60)) (= x_4 x_0)) (= x_6 x_2)) (= x_51 x_50)) ?v_133))) (or (or (and (and (and (= x_67 0) ?v_139) (or (not (<= x_45 ?v_135)) (= x_66 x_55))) ?v_136) (and (and (and (= x_67 1) ?v_134) (xor x_55 x_54)) (= x_44 ?v_140))) (and (and (and (= x_67 2) ?v_134) (= x_55 x_54)) ?v_136))) (or (or (and (and (and (= x_68 0) (not ?v_137)) (or (not (<= x_49 ?v_130)) (= x_61 x_1))) ?v_138) (and (and (and (= x_68 1) ?v_137) (xor x_1 x_5)) (= x_48 (+ ?v_130 x_69)))) (and (and (and (= x_68 2) ?v_137) (= x_1 x_5)) ?v_138))) (or (or (and (and (and (= x_70 0) ?v_139) (or (not (<= x_53 ?v_135)) (= x_6 x_3))) ?v_142) (and (and (and (= x_70 1) ?v_134) (not ?v_141)) (= x_52 ?v_140))) (and (and (and (= x_70 2) ?v_134) ?v_141) ?v_142))) (xor x_205 x_206)) (not (= x_211 x_203)))))))))))))))))
(check-sat)
(exit)
